
Gurobi 11.0.2 (win64) logging started Wed Aug 14 20:06:31 2024

Set parameter LogFile to value "D:\Documenti\Scuola\Laurea magistrale unibs\laurea-unibs-mkfsp\output\2024-08-14T16_44_40.946359\logs\instance09_bucket6.log"
Set parameter TimeLimit to value 500
Set parameter MIPGap to value 0
Gurobi Optimizer version 11.0.2 build v11.0.2rc0 (win64 - Windows 10.0 (19045.2))

CPU model: Intel(R) Core(TM) i5-4670 CPU @ 3.40GHz, instruction set [SSE2|AVX|AVX2]
Thread count: 4 physical cores, 4 logical processors, using up to 4 threads

Optimize a model with 5746 rows, 29235 columns and 822269 nonzeros
Model fingerprint: 0xa9a4a7f6
Variable types: 0 continuous, 29235 integer (29010 binary)
Coefficient statistics:
  Matrix range     [1e+00, 9e+03]
  Objective range  [6e+02, 9e+03]
  Bounds range     [1e+00, 1e+00]
  RHS range        [1e+00, 1e+06]
Found heuristic solution: objective 1138976.0000
Presolve time: 1.73s
Presolved: 5746 rows, 29235 columns, 822269 nonzeros
Variable types: 0 continuous, 29235 integer (29010 binary)
Found heuristic solution: objective 1220096.0000
Deterministic concurrent LP optimizer: primal simplex, dual simplex, and barrier
Showing barrier log only...

Root barrier log...

Ordering time: 0.07s

Barrier statistics:
 AA' NZ     : 8.798e+05
 Factor NZ  : 1.012e+06 (roughly 20 MB of memory)
 Factor Ops : 4.663e+08 (less than 1 second per iteration)
 Threads    : 2

Barrier performed 0 iterations in 2.43 seconds (2.07 work units)
Barrier solve interrupted - model solved by another algorithm

Concurrent spin time: 0.15s (can be avoided by choosing Method=3)

Solved with dual simplex

Root relaxation: objective 1.311669e+06, 1739 iterations, 0.62 seconds (0.43 work units)

    Nodes    |    Current Node    |     Objective Bounds      |     Work
 Expl Unexpl |  Obj  Depth IntInf | Incumbent    BestBd   Gap | It/Node Time

H    0     0                    1311669.0000 1311669.00  0.00%     -    2s
     0     0 1311669.00    0 1345 1311669.00 1311669.00  0.00%     -    2s

Explored 1 nodes (1739 simplex iterations) in 2.52 seconds (2.10 work units)
Thread count was 4 (of 4 available processors)

Solution count 3: 1.31167e+06 1.2201e+06 1.13898e+06 

Optimal solution found (tolerance 0.00e+00)
Best objective 1.311669000000e+06, best bound 1.311669000000e+06, gap 0.0000%
